WARNING: for repeatability, setting FPU to use double precision
============================[ Problem Statistics ]=============================
|                                                                             |
|  Number of variables:            50                                         |
|  Number of clauses:             218                                         |
|  Parse time:                   0.00 s                                       |
|                                                                             |
============================[ Search Statistics ]==============================
| Conflicts |          ORIGINAL         |          LEARNT          | Progress |
|           |    Vars  Clauses Literals |    Limit  Clauses Lit/Cl |          |
===============================================================================
===============================================================================
restarts              : 1
conflicts             : 61             (40053 /sec)
decisions             : 77             (0.00 % random) (50558 /sec)
propagations          : 951            (624425 /sec)
conflict literals     : 227            (18.35 % deleted)
Memory used           : 20.00 MB
CPU time              : 0.001523 s

SATISFIABLE
